
Gurobi 10.0.1 (mac64[rosetta2], gurobi_cl) logging started Sat Apr 29 20:16:34 2023

Set parameter LogFile to value "gurobi.log"
Restricted license - for non-production use only - expires 2024-10-28

Gurobi 10.0.1 (mac64[rosetta2], gurobi_cl) logging started Sat Apr 29 20:31:41 2023

Set parameter LogFile to value "gurobi.log"
Restricted license - for non-production use only - expires 2024-10-28

Gurobi 10.0.1 (mac64[rosetta2], gurobi_cl) logging started Sat Apr 29 20:40:14 2023

Set parameter LogFile to value "gurobi.log"
Restricted license - for non-production use only - expires 2024-10-28

Gurobi 10.0.1 (mac64[rosetta2], gurobi_cl) logging started Sat Apr 29 22:35:21 2023

Set parameter LogFile to value "gurobi.log"
Restricted license - for non-production use only - expires 2024-10-28

Gurobi 10.0.1 (mac64[rosetta2], gurobi_cl) logging started Sat Apr 29 23:37:32 2023

Set parameter LogFile to value "gurobi.log"
Restricted license - for non-production use only - expires 2024-10-28

Gurobi 10.0.1 (mac64[rosetta2], gurobi_cl) logging started Sat Apr 29 23:38:05 2023

Set parameter LogFile to value "gurobi.log"
Restricted license - for non-production use only - expires 2024-10-28

Gurobi 10.0.1 (mac64[rosetta2], gurobi_cl) logging started Sat Apr 29 23:40:31 2023

Set parameter LogFile to value "gurobi.log"
Restricted license - for non-production use only - expires 2024-10-28

Gurobi 10.0.1 (mac64[rosetta2], gurobi_cl) logging started Sat Apr 29 23:41:00 2023

Set parameter LogFile to value "gurobi.log"
Restricted license - for non-production use only - expires 2024-10-28

Gurobi 10.0.1 (mac64[rosetta2], gurobi_cl) logging started Sat Apr 29 23:41:45 2023

Set parameter LogFile to value "gurobi.log"
Restricted license - for non-production use only - expires 2024-10-28

Gurobi 10.0.1 (mac64[rosetta2], gurobi_cl) logging started Sat Apr 29 23:41:58 2023

Set parameter LogFile to value "gurobi.log"
Restricted license - for non-production use only - expires 2024-10-28

Gurobi 10.0.1 (mac64[rosetta2], gurobi_cl) logging started Sat Apr 29 23:42:08 2023

Set parameter LogFile to value "gurobi.log"
Restricted license - for non-production use only - expires 2024-10-28

Gurobi 10.0.1 (mac64[rosetta2], gurobi_cl) logging started Sat Apr 29 23:45:45 2023

Set parameter LogFile to value "gurobi.log"
Restricted license - for non-production use only - expires 2024-10-28

Gurobi 10.0.1 (mac64[rosetta2], gurobi_cl) logging started Sat Apr 29 23:50:43 2023

Set parameter LogFile to value "gurobi.log"
Restricted license - for non-production use only - expires 2024-10-28

Gurobi 10.0.1 (mac64[rosetta2], gurobi_cl) logging started Sat Apr 29 23:50:59 2023

Set parameter LogFile to value "gurobi.log"
Restricted license - for non-production use only - expires 2024-10-28

Gurobi 10.0.1 (mac64[rosetta2], gurobi_cl) logging started Sun Apr 30 01:22:55 2023

Set parameter LogFile to value "gurobi.log"
Restricted license - for non-production use only - expires 2024-10-28

Gurobi 10.0.1 (mac64[rosetta2], gurobi_cl) logging started Sun Apr 30 01:23:46 2023

Set parameter LogFile to value "gurobi.log"
Restricted license - for non-production use only - expires 2024-10-28

Gurobi 10.0.1 (mac64[rosetta2], gurobi_cl) logging started Sun Apr 30 01:46:31 2023

Set parameter LogFile to value "gurobi.log"
Restricted license - for non-production use only - expires 2024-10-28

Gurobi 10.0.1 (mac64[rosetta2], gurobi_cl) logging started Sun Apr 30 01:46:56 2023

Set parameter LogFile to value "gurobi.log"
Restricted license - for non-production use only - expires 2024-10-28

Gurobi 10.0.1 (mac64[rosetta2], gurobi_cl) logging started Sun Apr 30 01:59:07 2023

Set parameter LogFile to value "gurobi.log"
Restricted license - for non-production use only - expires 2024-10-28

Gurobi 10.0.1 (mac64[rosetta2], gurobi_cl) logging started Sun Apr 30 02:00:01 2023

Set parameter LogFile to value "gurobi.log"
Restricted license - for non-production use only - expires 2024-10-28

Gurobi 10.0.1 (mac64[rosetta2], gurobi_cl) logging started Sun Apr 30 02:04:46 2023

Set parameter LogFile to value "gurobi.log"
Restricted license - for non-production use only - expires 2024-10-28

Gurobi 10.0.1 (mac64[rosetta2], gurobi_cl) logging started Sun Apr 30 02:05:05 2023

Set parameter LogFile to value "gurobi.log"
Restricted license - for non-production use only - expires 2024-10-28

Gurobi 10.0.1 (mac64[rosetta2], gurobi_cl) logging started Sun Apr 30 02:05:35 2023

Set parameter LogFile to value "gurobi.log"
Restricted license - for non-production use only - expires 2024-10-28

Gurobi 10.0.1 (mac64[rosetta2], gurobi_cl) logging started Sun Apr 30 02:07:12 2023

Set parameter LogFile to value "gurobi.log"
Restricted license - for non-production use only - expires 2024-10-28

Gurobi 10.0.1 (mac64[rosetta2], gurobi_cl) logging started Sun Apr 30 02:07:46 2023

Set parameter LogFile to value "gurobi.log"
Restricted license - for non-production use only - expires 2024-10-28

Gurobi 10.0.1 (mac64[rosetta2], gurobi_cl) logging started Sun Apr 30 02:08:35 2023

Set parameter LogFile to value "gurobi.log"
Restricted license - for non-production use only - expires 2024-10-28

Gurobi 10.0.1 (mac64[rosetta2], gurobi_cl) logging started Sun Apr 30 02:08:58 2023

Set parameter LogFile to value "gurobi.log"
Restricted license - for non-production use only - expires 2024-10-28

Gurobi 10.0.1 (mac64[rosetta2], gurobi_cl) logging started Sun Apr 30 02:09:55 2023

Set parameter LogFile to value "gurobi.log"
Restricted license - for non-production use only - expires 2024-10-28

Gurobi 10.0.1 (mac64[rosetta2], gurobi_cl) logging started Sun Apr 30 02:10:06 2023

Set parameter LogFile to value "gurobi.log"
Restricted license - for non-production use only - expires 2024-10-28

Gurobi 10.0.1 (mac64[rosetta2], gurobi_cl) logging started Sun Apr 30 19:43:24 2023

Set parameter LogFile to value "gurobi.log"
Restricted license - for non-production use only - expires 2024-10-28
